benchmark/results/graph__15-1000-0.10-04_3/error_log/graph__15-1000-0.10-04_3_Quinton_Benders_primal_sub_ERRORLOG.lp
\ This file has been generated by DOcplex
\ ENCODING=ISO-8859-1
\Problem name: Quinton Benders_primal_sub

Maximize
 obj: tau
Subject To
 c1: tau <= 0.001340482574
 c2: y_a0_proc_0 + y_a0_proc_1 + y_a0_proc_2 + y_a0_proc_3 - tau = 0
 c3: y_a0_proc_0 <= 0
 c4: y_a0_proc_1 <= 0
 c5: y_a0_proc_2 <= 0
 c6: y_a0_proc_3 <= 1
 c7: tau <= 0.001061571125
 c8: y_a1_proc_1 + y_a1_proc_2 + y_a1_proc_3 - tau = 0
 c9: y_a1_proc_1 <= 0
 c10: y_a1_proc_2 <= 0
 c11: y_a1_proc_3 <= 1
 c12: tau <= 0.000960614793
 c13: y_a2_proc_0 + y_a2_proc_2 - tau = 0
 c14: y_a2_proc_0 <= 1
 c15: y_a2_proc_2 <= 0
 c16: tau <= 0.001785714286
 c17: y_a3_proc_0 + y_a3_proc_1 + y_a3_proc_2 - tau = 0
 c18: y_a3_proc_0 <= 0
 c19: y_a3_proc_1 <= 0
 c20: y_a3_proc_2 <= 1
 c21: tau <= 0.000946073794
 c22: y_a4_proc_1 + y_a4_proc_2 + y_a4_proc_3 - tau = 0
 c23: y_a4_proc_1 <= 0
 c24: y_a4_proc_2 <= 0
 c25: y_a4_proc_3 <= 1
 c26: tau <= 0.001479289941
 c27: y_a5_proc_0 + y_a5_proc_1 + y_a5_proc_3 - tau = 0
 c28: y_a5_proc_0 <= 1
 c29: y_a5_proc_1 <= 0
 c30: y_a5_proc_3 <= 0
 c31: tau <= 0.001655629139
 c32: y_a6_proc_0 + y_a6_proc_1 + y_a6_proc_2 + y_a6_proc_3 - tau = 0
 c33: y_a6_proc_0 <= 0
 c34: y_a6_proc_1 <= 0
 c35: y_a6_proc_2 <= 1
 c36: y_a6_proc_3 <= 0
 c37: tau <= 0.002272727273
 c38: y_a7_proc_0 + y_a7_proc_1 + y_a7_proc_2 + y_a7_proc_3 - tau = 0
 c39: y_a7_proc_0 <= 0
 c40: y_a7_proc_1 <= 0
 c41: y_a7_proc_2 <= 1
 c42: y_a7_proc_3 <= 0
 c43: tau <= 0.000897666068
 c44: y_a8_proc_0 + y_a8_proc_1 + y_a8_proc_3 - tau = 0
 c45: y_a8_proc_0 <= 0
 c46: y_a8_proc_1 <= 0
 c47: y_a8_proc_3 <= 1
 c48: tau <= 0.001742160279
 c49: y_a9_proc_0 + y_a9_proc_2 + y_a9_proc_3 - tau = 0
 c50: y_a9_proc_0 <= 0
 c51: y_a9_proc_2 <= 0
 c52: y_a9_proc_3 <= 1
 c53: tau <= 0.001201923077
 c54: y_a10_proc_0 + y_a10_proc_1 + y_a10_proc_2 + y_a10_proc_3 - tau = 0
 c55: y_a10_proc_0 <= 0
 c56: y_a10_proc_1 <= 0
 c57: y_a10_proc_2 <= 0
 c58: y_a10_proc_3 <= 1
 c59: tau <= 0.001383125864
 c60: y_a11_proc_0 + y_a11_proc_1 + y_a11_proc_2 + y_a11_proc_3 - tau = 0
 c61: y_a11_proc_0 <= 1
 c62: y_a11_proc_1 <= 0
 c63: y_a11_proc_2 <= 0
 c64: y_a11_proc_3 <= 0
 c65: tau <= 0.001428571429
 c66: y_a12_proc_1 + y_a12_proc_3 - tau = 0
 c67: y_a12_proc_1 <= 0
 c68: y_a12_proc_3 <= 1
 c69: tau <= 0.001180637544
 c70: y_a13_proc_2 - tau = 0
 c71: y_a13_proc_2 <= 1
 c72: tau <= 0.001483679525
 c73: y_a14_proc_2 + y_a14_proc_3 - tau = 0
 c74: y_a14_proc_2 <= 1
 c75: y_a14_proc_3 <= 0
 c76: u_a0 - u_a1 - 1070 y_a1_proc_1 - 813 y_a1_proc_2 - 942 y_a1_proc_3 >= -1
 c77: u_a2 - u_a0 - 913 y_a0_proc_0 - 822 y_a0_proc_1 - 899 y_a0_proc_2
      - 746 y_a0_proc_3 >= 0
 c78: u_a3 - u_a1 - 1070 y_a1_proc_1 - 813 y_a1_proc_2 - 942 y_a1_proc_3 >= -1
 c79: u_a4 - u_a2 - 1041 y_a2_proc_0 - 898 y_a2_proc_2 >= 0
 c80: u_a5 - u_a1 - 1070 y_a1_proc_1 - 813 y_a1_proc_2 - 942 y_a1_proc_3 >= 0
 c81: u_a3 - u_a6 - 1238 y_a6_proc_0 - 378 y_a6_proc_1 - 604 y_a6_proc_2
      - 314 y_a6_proc_3 >= -1
 c82: u_a7 - u_a0 - 913 y_a0_proc_0 - 822 y_a0_proc_1 - 899 y_a0_proc_2
      - 746 y_a0_proc_3 >= 0
 c83: u_a4 - u_a8 - 783 y_a8_proc_0 - 1197 y_a8_proc_1 - 1114 y_a8_proc_3 >= 0
 c84: u_a9 - u_a3 - 822 y_a3_proc_0 - 1004 y_a3_proc_1 - 560 y_a3_proc_2 >= 0
 c85: u_a10 - u_a6 - 1238 y_a6_proc_0 - 378 y_a6_proc_1 - 604 y_a6_proc_2
      - 314 y_a6_proc_3 >= 0
 c86: u_a10 - u_a11 - 723 y_a11_proc_0 - 953 y_a11_proc_1 - 635 y_a11_proc_2
      - 1111 y_a11_proc_3 >= 0
 c87: u_a12 - u_a0 - 913 y_a0_proc_0 - 822 y_a0_proc_1 - 899 y_a0_proc_2
      - 746 y_a0_proc_3 >= 0
 c88: u_a13 - u_a9 - 1249 y_a9_proc_0 - 403 y_a9_proc_2 - 574 y_a9_proc_3 >= 0
 c89: u_a14 - u_a5 - 676 y_a5_proc_0 - 966 y_a5_proc_1 - 1255 y_a5_proc_3 >= 0
 c90: u_a6 - u_a3 - 822 y_a3_proc_0 - 1004 y_a3_proc_1 - 560 y_a3_proc_2 >= 0
 c91: u_a6 - u_a4 - 908 y_a4_proc_1 - 512 y_a4_proc_2 - 1057 y_a4_proc_3 >= 0
 c92: u_a10 - u_a12 - 984 y_a12_proc_1 - 700 y_a12_proc_3 >= 0
 c93: u_a1 - u_a10 - 592 y_a10_proc_0 - 1021 y_a10_proc_1 - 1178 y_a10_proc_2
      - 832 y_a10_proc_3 >= 0
 c94: u_a11 - u_a7 - 962 y_a7_proc_0 - 1207 y_a7_proc_1 - 440 y_a7_proc_2
      - 1053 y_a7_proc_3 >= 0
 c95: u_a8 - u_a2 - 1041 y_a2_proc_0 - 898 y_a2_proc_2 >= 0
 c96: u_a8 - u_a12 - 984 y_a12_proc_1 - 700 y_a12_proc_3 >= 0
 c97: u_a1 - u_a0 - 899 y_a0_proc_2 >= -2510
 c98: u_a1 - u_a0 - 746 y_a0_proc_3 >= 0
 c99: u_a1 - u_a0 - 822 y_a0_proc_1 >= -2510
 c100: u_a0 - u_a1 - 813 y_a1_proc_2 >= -2511
 c101: u_a0 - u_a1 - 942 y_a1_proc_3 >= -1
 c102: u_a0 - u_a1 - 1070 y_a1_proc_1 >= -2511
 c103: u_a2 - u_a0 - 913 y_a0_proc_0 >= -2510
 c104: u_a2 - u_a0 - 899 y_a0_proc_2 >= -3765
 c105: u_a0 - u_a2 - 1041 y_a2_proc_0 >= -1
 c106: u_a0 - u_a2 - 898 y_a2_proc_2 >= -1256
 c107: u_a3 - u_a0 - 913 y_a0_proc_0 >= -3766
 c108: u_a3 - u_a0 - 899 y_a0_proc_2 >= -2511
 c109: u_a3 - u_a0 - 822 y_a0_proc_1 >= -3766
 c110: u_a0 - u_a3 - 822 y_a3_proc_0 >= -1255
 c111: u_a0 - u_a3 - 560 y_a3_proc_2 >= 0
 c112: u_a0 - u_a3 - 1004 y_a3_proc_1 >= -1255
 c113: u_a4 - u_a0 - 899 y_a0_proc_2 >= -2510
 c114: u_a4 - u_a0 - 746 y_a0_proc_3 >= 0
 c115: u_a4 - u_a0 - 822 y_a0_proc_1 >= -2510
 c116: u_a0 - u_a4 - 512 y_a4_proc_2 >= -2511
 c117: u_a0 - u_a4 - 1057 y_a4_proc_3 >= -1
 c118: u_a0 - u_a4 - 908 y_a4_proc_1 >= -2511
 c119: u_a5 - u_a0 - 913 y_a0_proc_0 >= -2510
 c120: u_a5 - u_a0 - 746 y_a0_proc_3 >= -2510
 c121: u_a5 - u_a0 - 822 y_a0_proc_1 >= -3765
 c122: u_a0 - u_a5 - 676 y_a5_proc_0 >= -1
 c123: u_a0 - u_a5 - 1255 y_a5_proc_3 >= -1
 c124: u_a0 - u_a5 - 966 y_a5_proc_1 >= -1256
 c125: u_a6 - u_a0 - 913 y_a0_proc_0 >= -3765
 c126: u_a6 - u_a0 - 899 y_a0_proc_2 >= -2510
 c127: u_a6 - u_a0 - 746 y_a0_proc_3 >= -2510
 c128: u_a6 - u_a0 - 822 y_a0_proc_1 >= -3765
 c129: u_a0 - u_a6 - 1238 y_a6_proc_0 >= -1256
 c130: u_a0 - u_a6 - 604 y_a6_proc_2 >= -1
 c131: u_a0 - u_a6 - 314 y_a6_proc_3 >= -1
 c132: u_a0 - u_a6 - 378 y_a6_proc_1 >= -1256
 c133: u_a7 - u_a0 - 913 y_a0_proc_0 >= -3765
 c134: u_a7 - u_a0 - 899 y_a0_proc_2 >= -2510
 c135: u_a7 - u_a0 - 746 y_a0_proc_3 >= -2510
 c136: u_a7 - u_a0 - 822 y_a0_proc_1 >= -3765
 c137: u_a0 - u_a7 - 962 y_a7_proc_0 >= -1256
 c138: u_a0 - u_a7 - 440 y_a7_proc_2 >= -1
 c139: u_a0 - u_a7 - 1053 y_a7_proc_3 >= -1
 c140: u_a0 - u_a7 - 1207 y_a7_proc_1 >= -1256
 c141: u_a8 - u_a0 - 913 y_a0_proc_0 >= -2510
 c142: u_a8 - u_a0 - 746 y_a0_proc_3 >= 0
 c143: u_a8 - u_a0 - 822 y_a0_proc_1 >= -2510
 c144: u_a0 - u_a8 - 783 y_a8_proc_0 >= -2511
 c145: u_a0 - u_a8 - 1114 y_a8_proc_3 >= -1
 c146: u_a0 - u_a8 - 1197 y_a8_proc_1 >= -2511
 c147: u_a9 - u_a0 - 913 y_a0_proc_0 >= -2511
 c148: u_a9 - u_a0 - 899 y_a0_proc_2 >= -2511
 c149: u_a9 - u_a0 - 746 y_a0_proc_3 >= -1
 c150: u_a0 - u_a9 - 1249 y_a9_proc_0 >= -2510
 c151: u_a0 - u_a9 - 403 y_a9_proc_2 >= -2510
 c152: u_a0 - u_a9 - 574 y_a9_proc_3 >= 0
 c153: u_a10 - u_a0 - 913 y_a0_proc_0 >= -2510
 c154: u_a10 - u_a0 - 899 y_a0_proc_2 >= -2510
 c155: u_a10 - u_a0 - 746 y_a0_proc_3 >= 0
 c156: u_a10 - u_a0 - 822 y_a0_proc_1 >= -2510
 c157: u_a0 - u_a10 - 592 y_a10_proc_0 >= -2511
 c158: u_a0 - u_a10 - 1178 y_a10_proc_2 >= -2511
 c159: u_a0 - u_a10 - 832 y_a10_proc_3 >= -1
 c160: u_a0 - u_a10 - 1021 y_a10_proc_1 >= -2511
 c161: u_a11 - u_a0 - 913 y_a0_proc_0 >= -2510
 c162: u_a11 - u_a0 - 899 y_a0_proc_2 >= -3765
 c163: u_a11 - u_a0 - 746 y_a0_proc_3 >= -2510
 c164: u_a11 - u_a0 - 822 y_a0_proc_1 >= -3765
 c165: u_a0 - u_a11 - 723 y_a11_proc_0 >= -1
 c166: u_a0 - u_a11 - 635 y_a11_proc_2 >= -1256
 c167: u_a0 - u_a11 - 1111 y_a11_proc_3 >= -1
 c168: u_a0 - u_a11 - 953 y_a11_proc_1 >= -1256
 c169: u_a12 - u_a0 - 746 y_a0_proc_3 >= 0
 c170: u_a12 - u_a0 - 822 y_a0_proc_1 >= -2510
 c171: u_a0 - u_a12 - 700 y_a12_proc_3 >= -1
 c172: u_a0 - u_a12 - 984 y_a12_proc_1 >= -2511
 c173: u_a13 - u_a0 - 899 y_a0_proc_2 >= 999998744
 c174: u_a0 - u_a13 - 847 y_a13_proc_2 >= -1000001255
 c175: u_a14 - u_a0 - 899 y_a0_proc_2 >= -2510
 c176: u_a14 - u_a0 - 746 y_a0_proc_3 >= -2510
 c177: u_a0 - u_a14 - 674 y_a14_proc_2 >= -1
 c178: u_a0 - u_a14 - 1195 y_a14_proc_3 >= -1
 c179: u_a2 - u_a1 - 813 y_a1_proc_2 >= -5021
 c180: u_a1 - u_a2 - 898 y_a2_proc_2 >= 0
 c181: u_a3 - u_a1 - 813 y_a1_proc_2 >= -2511
 c182: u_a3 - u_a1 - 1070 y_a1_proc_1 >= -3766
 c183: u_a1 - u_a3 - 560 y_a3_proc_2 >= 0
 c184: u_a1 - u_a3 - 1004 y_a3_proc_1 >= -1255
 c185: u_a4 - u_a1 - 813 y_a1_proc_2 >= -2511
 c186: u_a4 - u_a1 - 942 y_a1_proc_3 >= -1
 c187: u_a4 - u_a1 - 1070 y_a1_proc_1 >= -2511
 c188: u_a1 - u_a4 - 512 y_a4_proc_2 >= -2510
 c189: u_a1 - u_a4 - 1057 y_a4_proc_3 >= 0
 c190: u_a1 - u_a4 - 908 y_a4_proc_1 >= -2510
 c191: u_a5 - u_a1 - 942 y_a1_proc_3 >= -2510
 c192: u_a5 - u_a1 - 1070 y_a1_proc_1 >= -3765
 c193: u_a1 - u_a5 - 1255 y_a5_proc_3 >= -1
 c194: u_a1 - u_a5 - 966 y_a5_proc_1 >= -1256
 c195: u_a6 - u_a1 - 813 y_a1_proc_2 >= -2511
 c196: u_a6 - u_a1 - 942 y_a1_proc_3 >= -2511
 c197: u_a6 - u_a1 - 1070 y_a1_proc_1 >= -3766
 c198: u_a1 - u_a6 - 604 y_a6_proc_2 >= 0
 c199: u_a1 - u_a6 - 314 y_a6_proc_3 >= 0
 c200: u_a1 - u_a6 - 378 y_a6_proc_1 >= -1255
 c201: u_a7 - u_a1 - 813 y_a1_proc_2 >= -2511
 c202: u_a7 - u_a1 - 942 y_a1_proc_3 >= -2511
 c203: u_a7 - u_a1 - 1070 y_a1_proc_1 >= -3766
 c204: u_a1 - u_a7 - 440 y_a7_proc_2 >= 0
 c205: u_a1 - u_a7 - 1053 y_a7_proc_3 >= 0
 c206: u_a1 - u_a7 - 1207 y_a7_proc_1 >= -1255
 c207: u_a8 - u_a1 - 942 y_a1_proc_3 >= -1
 c208: u_a8 - u_a1 - 1070 y_a1_proc_1 >= -2511
 c209: u_a1 - u_a8 - 1114 y_a8_proc_3 >= 0
 c210: u_a1 - u_a8 - 1197 y_a8_proc_1 >= -2510
 c211: u_a9 - u_a1 - 813 y_a1_proc_2 >= -2511
 c212: u_a9 - u_a1 - 942 y_a1_proc_3 >= -1
 c213: u_a1 - u_a9 - 403 y_a9_proc_2 >= -2510
 c214: u_a1 - u_a9 - 574 y_a9_proc_3 >= 0
 c215: u_a10 - u_a1 - 813 y_a1_proc_2 >= -2511
 c216: u_a10 - u_a1 - 942 y_a1_proc_3 >= -1
 c217: u_a10 - u_a1 - 1070 y_a1_proc_1 >= -2511
 c218: u_a1 - u_a10 - 1178 y_a10_proc_2 >= -2510
 c219: u_a1 - u_a10 - 832 y_a10_proc_3 >= 0
 c220: u_a1 - u_a10 - 1021 y_a10_proc_1 >= -2510
 c221: u_a11 - u_a1 - 813 y_a1_proc_2 >= -3766
 c222: u_a11 - u_a1 - 942 y_a1_proc_3 >= -2511
 c223: u_a11 - u_a1 - 1070 y_a1_proc_1 >= -3766
 c224: u_a1 - u_a11 - 635 y_a11_proc_2 >= -1255
 c225: u_a1 - u_a11 - 1111 y_a11_proc_3 >= 0
 c226: u_a1 - u_a11 - 953 y_a11_proc_1 >= -1255
 c227: u_a12 - u_a1 - 942 y_a1_proc_3 >= -1
 c228: u_a12 - u_a1 - 1070 y_a1_proc_1 >= -2511
 c229: u_a1 - u_a12 - 700 y_a12_proc_3 >= 0
 c230: u_a1 - u_a12 - 984 y_a12_proc_1 >= -2510
 c231: u_a13 - u_a1 - 813 y_a1_proc_2 >= 999997489
 c232: u_a1 - u_a13 - 847 y_a13_proc_2 >= -1000000000
 c233: u_a14 - u_a1 - 813 y_a1_proc_2 >= -2510
 c234: u_a14 - u_a1 - 942 y_a1_proc_3 >= -2510
 c235: u_a1 - u_a14 - 674 y_a14_proc_2 >= -1
 c236: u_a1 - u_a14 - 1195 y_a14_proc_3 >= -1
 c237: u_a3 - u_a2 - 1041 y_a2_proc_0 >= -2511
 c238: u_a3 - u_a2 - 898 y_a2_proc_2 >= -2511
 c239: u_a2 - u_a3 - 822 y_a3_proc_0 >= 0
 c240: u_a2 - u_a3 - 560 y_a3_proc_2 >= 0
 c241: u_a4 - u_a2 - 898 y_a2_proc_2 >= -5020
 c242: u_a2 - u_a4 - 512 y_a4_proc_2 >= -1
 c243: u_a5 - u_a2 - 1041 y_a2_proc_0 >= 0
 c244: u_a2 - u_a5 - 676 y_a5_proc_0 >= -1
 c245: u_a6 - u_a2 - 1041 y_a2_proc_0 >= -2510
 c246: u_a6 - u_a2 - 898 y_a2_proc_2 >= -2510
 c247: u_a2 - u_a6 - 1238 y_a6_proc_0 >= -1
 c248: u_a2 - u_a6 - 604 y_a6_proc_2 >= -1
 c249: u_a7 - u_a2 - 1041 y_a2_proc_0 >= -2510
 c250: u_a7 - u_a2 - 898 y_a2_proc_2 >= -2510
 c251: u_a2 - u_a7 - 962 y_a7_proc_0 >= -1
 c252: u_a2 - u_a7 - 440 y_a7_proc_2 >= -1
 c253: u_a8 - u_a2 - 1041 y_a2_proc_0 >= -2510
 c254: u_a2 - u_a8 - 783 y_a8_proc_0 >= -1
 c255: u_a9 - u_a2 - 1041 y_a2_proc_0 >= -2511
 c256: u_a9 - u_a2 - 898 y_a2_proc_2 >= -3766
 c257: u_a2 - u_a9 - 1249 y_a9_proc_0 >= 0
 c258: u_a2 - u_a9 - 403 y_a9_proc_2 >= -1255
 c259: u_a10 - u_a2 - 1041 y_a2_proc_0 >= -2510
 c260: u_a10 - u_a2 - 898 y_a2_proc_2 >= -3765
 c261: u_a2 - u_a10 - 592 y_a10_proc_0 >= -1
 c262: u_a2 - u_a10 - 1178 y_a10_proc_2 >= -1256
 c263: u_a11 - u_a2 - 1041 y_a2_proc_0 >= 0
 c264: u_a11 - u_a2 - 898 y_a2_proc_2 >= -2510
 c265: u_a2 - u_a11 - 723 y_a11_proc_0 >= -1
 c266: u_a2 - u_a11 - 635 y_a11_proc_2 >= -2511
 c267: u_a13 - u_a2 - 898 y_a2_proc_2 >= 999997489
 c268: u_a2 - u_a13 - 847 y_a13_proc_2 >= -1000000000
 c269: u_a14 - u_a2 - 898 y_a2_proc_2 >= -2510
 c270: u_a2 - u_a14 - 674 y_a14_proc_2 >= -1
 c271: u_a4 - u_a3 - 560 y_a3_proc_2 >= -2510
 c272: u_a4 - u_a3 - 1004 y_a3_proc_1 >= -3765
 c273: u_a3 - u_a4 - 512 y_a4_proc_2 >= -1
 c274: u_a3 - u_a4 - 908 y_a4_proc_1 >= -1256
 c275: u_a5 - u_a3 - 822 y_a3_proc_0 >= -2509
 c276: u_a5 - u_a3 - 1004 y_a3_proc_1 >= -3764
 c277: u_a3 - u_a5 - 676 y_a5_proc_0 >= -2
 c278: u_a3 - u_a5 - 966 y_a5_proc_1 >= -1257
 c279: u_a6 - u_a3 - 822 y_a3_proc_0 >= -2510
 c280: u_a6 - u_a3 - 560 y_a3_proc_2 >= 0
 c281: u_a6 - u_a3 - 1004 y_a3_proc_1 >= -2510
 c282: u_a3 - u_a6 - 1238 y_a6_proc_0 >= -2511
 c283: u_a3 - u_a6 - 604 y_a6_proc_2 >= -1
 c284: u_a3 - u_a6 - 378 y_a6_proc_1 >= -2511
 c285: u_a7 - u_a3 - 822 y_a3_proc_0 >= -2510
 c286: u_a7 - u_a3 - 560 y_a3_proc_2 >= 0
 c287: u_a7 - u_a3 - 1004 y_a3_proc_1 >= -2510
 c288: u_a3 - u_a7 - 962 y_a7_proc_0 >= -2511
 c289: u_a3 - u_a7 - 440 y_a7_proc_2 >= -1
 c290: u_a3 - u_a7 - 1207 y_a7_proc_1 >= -2511
 c291: u_a8 - u_a3 - 822 y_a3_proc_0 >= -5020
 c292: u_a8 - u_a3 - 1004 y_a3_proc_1 >= -5020
 c293: u_a3 - u_a8 - 783 y_a8_proc_0 >= -1
 c294: u_a3 - u_a8 - 1197 y_a8_proc_1 >= -1
 c295: u_a9 - u_a3 - 822 y_a3_proc_0 >= -3765
 c296: u_a9 - u_a3 - 560 y_a3_proc_2 >= -2510
 c297: u_a3 - u_a9 - 1249 y_a9_proc_0 >= -1256
 c298: u_a3 - u_a9 - 403 y_a9_proc_2 >= -1
 c299: u_a10 - u_a3 - 822 y_a3_proc_0 >= -3765
 c300: u_a10 - u_a3 - 560 y_a3_proc_2 >= -2510
 c301: u_a10 - u_a3 - 1004 y_a3_proc_1 >= -3765
 c302: u_a3 - u_a10 - 592 y_a10_proc_0 >= -1256
 c303: u_a3 - u_a10 - 1178 y_a10_proc_2 >= -1
 c304: u_a3 - u_a10 - 1021 y_a10_proc_1 >= -1256
 c305: u_a11 - u_a3 - 822 y_a3_proc_0 >= -2510
 c306: u_a11 - u_a3 - 560 y_a3_proc_2 >= -2510
 c307: u_a11 - u_a3 - 1004 y_a3_proc_1 >= -3765
 c308: u_a3 - u_a11 - 723 y_a11_proc_0 >= -1
 c309: u_a3 - u_a11 - 635 y_a11_proc_2 >= -1
 c310: u_a3 - u_a11 - 953 y_a11_proc_1 >= -1256
 c311: u_a12 - u_a3 - 1004 y_a3_proc_1 >= -5020
 c312: u_a3 - u_a12 - 984 y_a12_proc_1 >= -1
 c313: u_a13 - u_a3 - 560 y_a3_proc_2 >= 999999999
 c314: u_a3 - u_a13 - 847 y_a13_proc_2 >= -1000000000
 c315: u_a14 - u_a3 - 560 y_a3_proc_2 >= 1
 c316: u_a3 - u_a14 - 674 y_a14_proc_2 >= -2
 c317: u_a5 - u_a4 - 1057 y_a4_proc_3 >= -2510
 c318: u_a5 - u_a4 - 908 y_a4_proc_1 >= -3765
 c319: u_a4 - u_a5 - 1255 y_a5_proc_3 >= -1
 c320: u_a4 - u_a5 - 966 y_a5_proc_1 >= -1256
 c321: u_a6 - u_a4 - 512 y_a4_proc_2 >= -2510
 c322: u_a6 - u_a4 - 1057 y_a4_proc_3 >= -2510
 c323: u_a6 - u_a4 - 908 y_a4_proc_1 >= -3765
 c324: u_a4 - u_a6 - 604 y_a6_proc_2 >= -1
 c325: u_a4 - u_a6 - 314 y_a6_proc_3 >= -1
 c326: u_a4 - u_a6 - 378 y_a6_proc_1 >= -1256
 c327: u_a7 - u_a4 - 512 y_a4_proc_2 >= -2510
 c328: u_a7 - u_a4 - 1057 y_a4_proc_3 >= -2510
 c329: u_a7 - u_a4 - 908 y_a4_proc_1 >= -3765
 c330: u_a4 - u_a7 - 440 y_a7_proc_2 >= -1
 c331: u_a4 - u_a7 - 1053 y_a7_proc_3 >= -1
 c332: u_a4 - u_a7 - 1207 y_a7_proc_1 >= -1256
 c333: u_a8 - u_a4 - 1057 y_a4_proc_3 >= -1
 c334: u_a8 - u_a4 - 908 y_a4_proc_1 >= -2511
 c335: u_a4 - u_a8 - 1114 y_a8_proc_3 >= 0
 c336: u_a4 - u_a8 - 1197 y_a8_proc_1 >= -2510
 c337: u_a9 - u_a4 - 512 y_a4_proc_2 >= -2511
 c338: u_a9 - u_a4 - 1057 y_a4_proc_3 >= -1
 c339: u_a4 - u_a9 - 403 y_a9_proc_2 >= -2510
 c340: u_a4 - u_a9 - 574 y_a9_proc_3 >= 0
 c341: u_a10 - u_a4 - 512 y_a4_proc_2 >= -2510
 c342: u_a10 - u_a4 - 1057 y_a4_proc_3 >= 0
 c343: u_a10 - u_a4 - 908 y_a4_proc_1 >= -2510
 c344: u_a4 - u_a10 - 1178 y_a10_proc_2 >= -2511
 c345: u_a4 - u_a10 - 832 y_a10_proc_3 >= -1
 c346: u_a4 - u_a10 - 1021 y_a10_proc_1 >= -2511
 c347: u_a11 - u_a4 - 512 y_a4_proc_2 >= -3765
 c348: u_a11 - u_a4 - 1057 y_a4_proc_3 >= -2510
 c349: u_a11 - u_a4 - 908 y_a4_proc_1 >= -3765
 c350: u_a4 - u_a11 - 635 y_a11_proc_2 >= -1256
 c351: u_a4 - u_a11 - 1111 y_a11_proc_3 >= -1
 c352: u_a4 - u_a11 - 953 y_a11_proc_1 >= -1256
 c353: u_a12 - u_a4 - 1057 y_a4_proc_3 >= -1
 c354: u_a12 - u_a4 - 908 y_a4_proc_1 >= -2511
 c355: u_a4 - u_a12 - 700 y_a12_proc_3 >= 0
 c356: u_a4 - u_a12 - 984 y_a12_proc_1 >= -2510
 c357: u_a13 - u_a4 - 512 y_a4_proc_2 >= 999997489
 c358: u_a4 - u_a13 - 847 y_a13_proc_2 >= -1000000000
 c359: u_a14 - u_a4 - 512 y_a4_proc_2 >= -2510
 c360: u_a14 - u_a4 - 1057 y_a4_proc_3 >= -2510
 c361: u_a4 - u_a14 - 674 y_a14_proc_2 >= -1
 c362: u_a4 - u_a14 - 1195 y_a14_proc_3 >= -1
 c363: u_a6 - u_a5 - 676 y_a5_proc_0 >= -2511
 c364: u_a6 - u_a5 - 1255 y_a5_proc_3 >= -3766
 c365: u_a6 - u_a5 - 966 y_a5_proc_1 >= -3766
 c366: u_a5 - u_a6 - 1238 y_a6_proc_0 >= 0
 c367: u_a5 - u_a6 - 314 y_a6_proc_3 >= -1255
 c368: u_a5 - u_a6 - 378 y_a6_proc_1 >= -1255
 c369: u_a7 - u_a5 - 676 y_a5_proc_0 >= -2511
 c370: u_a7 - u_a5 - 1255 y_a5_proc_3 >= -3766
 c371: u_a7 - u_a5 - 966 y_a5_proc_1 >= -3766
 c372: u_a5 - u_a7 - 962 y_a7_proc_0 >= 0
 c373: u_a5 - u_a7 - 1053 y_a7_proc_3 >= -1255
 c374: u_a5 - u_a7 - 1207 y_a7_proc_1 >= -1255
 c375: u_a8 - u_a5 - 676 y_a5_proc_0 >= -2511
 c376: u_a8 - u_a5 - 1255 y_a5_proc_3 >= -2511
 c377: u_a8 - u_a5 - 966 y_a5_proc_1 >= -3766
 c378: u_a5 - u_a8 - 783 y_a8_proc_0 >= 0
 c379: u_a5 - u_a8 - 1114 y_a8_proc_3 >= 0
 c380: u_a5 - u_a8 - 1197 y_a8_proc_1 >= -1255
 c381: u_a9 - u_a5 - 676 y_a5_proc_0 >= -2511
 c382: u_a9 - u_a5 - 1255 y_a5_proc_3 >= -2511
 c383: u_a5 - u_a9 - 1249 y_a9_proc_0 >= 0
 c384: u_a5 - u_a9 - 574 y_a9_proc_3 >= 0
 c385: u_a10 - u_a5 - 676 y_a5_proc_0 >= -1
 c386: u_a10 - u_a5 - 1255 y_a5_proc_3 >= -1
 c387: u_a10 - u_a5 - 966 y_a5_proc_1 >= -1256
 c388: u_a5 - u_a10 - 592 y_a10_proc_0 >= -2510
 c389: u_a5 - u_a10 - 832 y_a10_proc_3 >= -2510
 c390: u_a5 - u_a10 - 1021 y_a10_proc_1 >= -3765
 c391: u_a11 - u_a5 - 676 y_a5_proc_0 >= -1
 c392: u_a11 - u_a5 - 1255 y_a5_proc_3 >= -2511
 c393: u_a11 - u_a5 - 966 y_a5_proc_1 >= -2511
 c394: u_a5 - u_a11 - 723 y_a11_proc_0 >= 0
 c395: u_a5 - u_a11 - 1111 y_a11_proc_3 >= -2510
 c396: u_a5 - u_a11 - 953 y_a11_proc_1 >= -2510
 c397: u_a12 - u_a5 - 1255 y_a5_proc_3 >= -2511
 c398: u_a12 - u_a5 - 966 y_a5_proc_1 >= -3766
 c399: u_a5 - u_a12 - 700 y_a12_proc_3 >= 0
 c400: u_a5 - u_a12 - 984 y_a12_proc_1 >= -1255
 c401: u_a14 - u_a5 - 1255 y_a5_proc_3 >= -5020
 c402: u_a5 - u_a14 - 1195 y_a14_proc_3 >= -1
 c403: u_a7 - u_a6 - 1238 y_a6_proc_0 >= -2511
 c404: u_a7 - u_a6 - 604 y_a6_proc_2 >= -1
 c405: u_a7 - u_a6 - 314 y_a6_proc_3 >= -2511
 c406: u_a7 - u_a6 - 378 y_a6_proc_1 >= -2511
 c407: u_a6 - u_a7 - 962 y_a7_proc_0 >= -2510
 c408: u_a6 - u_a7 - 440 y_a7_proc_2 >= 0
 c409: u_a6 - u_a7 - 1053 y_a7_proc_3 >= -2510
 c410: u_a6 - u_a7 - 1207 y_a7_proc_1 >= -2510
 c411: u_a8 - u_a6 - 1238 y_a6_proc_0 >= -3766
 c412: u_a8 - u_a6 - 314 y_a6_proc_3 >= -2511
 c413: u_a8 - u_a6 - 378 y_a6_proc_1 >= -3766
 c414: u_a6 - u_a8 - 783 y_a8_proc_0 >= -1255
 c415: u_a6 - u_a8 - 1114 y_a8_proc_3 >= 0
 c416: u_a6 - u_a8 - 1197 y_a8_proc_1 >= -1255
 c417: u_a9 - u_a6 - 1238 y_a6_proc_0 >= -3766
 c418: u_a9 - u_a6 - 604 y_a6_proc_2 >= -2511
 c419: u_a9 - u_a6 - 314 y_a6_proc_3 >= -2511
 c420: u_a6 - u_a9 - 1249 y_a9_proc_0 >= -1255
 c421: u_a6 - u_a9 - 403 y_a9_proc_2 >= 0
 c422: u_a6 - u_a9 - 574 y_a9_proc_3 >= 0
 c423: u_a10 - u_a6 - 1238 y_a6_proc_0 >= -1255
 c424: u_a10 - u_a6 - 604 y_a6_proc_2 >= 0
 c425: u_a10 - u_a6 - 314 y_a6_proc_3 >= 0
 c426: u_a10 - u_a6 - 378 y_a6_proc_1 >= -1255
 c427: u_a6 - u_a10 - 592 y_a10_proc_0 >= -3766
 c428: u_a6 - u_a10 - 1178 y_a10_proc_2 >= -2511
 c429: u_a6 - u_a10 - 832 y_a10_proc_3 >= -2511
 c430: u_a6 - u_a10 - 1021 y_a10_proc_1 >= -3766
 c431: u_a11 - u_a6 - 1238 y_a6_proc_0 >= -2510
 c432: u_a11 - u_a6 - 604 y_a6_proc_2 >= -2510
 c433: u_a11 - u_a6 - 314 y_a6_proc_3 >= -3765
 c434: u_a11 - u_a6 - 378 y_a6_proc_1 >= -3765
 c435: u_a6 - u_a11 - 723 y_a11_proc_0 >= -1
 c436: u_a6 - u_a11 - 635 y_a11_proc_2 >= -1
 c437: u_a6 - u_a11 - 1111 y_a11_proc_3 >= -1256
 c438: u_a6 - u_a11 - 953 y_a11_proc_1 >= -1256
 c439: u_a12 - u_a6 - 314 y_a6_proc_3 >= -2511
 c440: u_a12 - u_a6 - 378 y_a6_proc_1 >= -3766
 c441: u_a6 - u_a12 - 700 y_a12_proc_3 >= 0
 c442: u_a6 - u_a12 - 984 y_a12_proc_1 >= -1255
 c443: u_a13 - u_a6 - 604 y_a6_proc_2 >= 999999999
 c444: u_a6 - u_a13 - 847 y_a13_proc_2 >= -1000000000
 c445: u_a14 - u_a6 - 604 y_a6_proc_2 >= 0
 c446: u_a14 - u_a6 - 314 y_a6_proc_3 >= -2510
 c447: u_a6 - u_a14 - 674 y_a14_proc_2 >= -1
 c448: u_a6 - u_a14 - 1195 y_a14_proc_3 >= -2511
 c449: u_a8 - u_a7 - 962 y_a7_proc_0 >= -3766
 c450: u_a8 - u_a7 - 1053 y_a7_proc_3 >= -2511
 c451: u_a8 - u_a7 - 1207 y_a7_proc_1 >= -3766
 c452: u_a7 - u_a8 - 783 y_a8_proc_0 >= -1255
 c453: u_a7 - u_a8 - 1114 y_a8_proc_3 >= 0
 c454: u_a7 - u_a8 - 1197 y_a8_proc_1 >= -1255
 c455: u_a9 - u_a7 - 962 y_a7_proc_0 >= -3766
 c456: u_a9 - u_a7 - 440 y_a7_proc_2 >= -2511
 c457: u_a9 - u_a7 - 1053 y_a7_proc_3 >= -2511
 c458: u_a7 - u_a9 - 1249 y_a9_proc_0 >= -1255
 c459: u_a7 - u_a9 - 403 y_a9_proc_2 >= 0
 c460: u_a7 - u_a9 - 574 y_a9_proc_3 >= 0
 c461: u_a10 - u_a7 - 962 y_a7_proc_0 >= -3765
 c462: u_a10 - u_a7 - 440 y_a7_proc_2 >= -2510
 c463: u_a10 - u_a7 - 1053 y_a7_proc_3 >= -2510
 c464: u_a10 - u_a7 - 1207 y_a7_proc_1 >= -3765
 c465: u_a7 - u_a10 - 592 y_a10_proc_0 >= -1256
 c466: u_a7 - u_a10 - 1178 y_a10_proc_2 >= -1
 c467: u_a7 - u_a10 - 832 y_a10_proc_3 >= -1
 c468: u_a7 - u_a10 - 1021 y_a10_proc_1 >= -1256
 c469: u_a11 - u_a7 - 962 y_a7_proc_0 >= -2510
 c470: u_a11 - u_a7 - 440 y_a7_proc_2 >= -2510
 c471: u_a11 - u_a7 - 1053 y_a7_proc_3 >= -3765
 c472: u_a11 - u_a7 - 1207 y_a7_proc_1 >= -3765
 c473: u_a7 - u_a11 - 723 y_a11_proc_0 >= -1
 c474: u_a7 - u_a11 - 635 y_a11_proc_2 >= -1
 c475: u_a7 - u_a11 - 1111 y_a11_proc_3 >= -1256
 c476: u_a7 - u_a11 - 953 y_a11_proc_1 >= -1256
 c477: u_a12 - u_a7 - 1053 y_a7_proc_3 >= -2511
 c478: u_a12 - u_a7 - 1207 y_a7_proc_1 >= -3766
 c479: u_a7 - u_a12 - 700 y_a12_proc_3 >= 0
 c480: u_a7 - u_a12 - 984 y_a12_proc_1 >= -1255
 c481: u_a13 - u_a7 - 440 y_a7_proc_2 >= 999999999
 c482: u_a7 - u_a13 - 847 y_a13_proc_2 >= -1000000000
 c483: u_a14 - u_a7 - 440 y_a7_proc_2 >= 0
 c484: u_a14 - u_a7 - 1053 y_a7_proc_3 >= -2510
 c485: u_a7 - u_a14 - 674 y_a14_proc_2 >= -1
 c486: u_a7 - u_a14 - 1195 y_a14_proc_3 >= -2511
 c487: u_a9 - u_a8 - 783 y_a8_proc_0 >= -2511
 c488: u_a9 - u_a8 - 1114 y_a8_proc_3 >= -1
 c489: u_a8 - u_a9 - 1249 y_a9_proc_0 >= -2510
 c490: u_a8 - u_a9 - 574 y_a9_proc_3 >= 0
 c491: u_a10 - u_a8 - 783 y_a8_proc_0 >= -2510
 c492: u_a10 - u_a8 - 1114 y_a8_proc_3 >= 0
 c493: u_a10 - u_a8 - 1197 y_a8_proc_1 >= -2510
 c494: u_a8 - u_a10 - 592 y_a10_proc_0 >= -2511
 c495: u_a8 - u_a10 - 832 y_a10_proc_3 >= -1
 c496: u_a8 - u_a10 - 1021 y_a10_proc_1 >= -2511
 c497: u_a11 - u_a8 - 783 y_a8_proc_0 >= -2510
 c498: u_a11 - u_a8 - 1114 y_a8_proc_3 >= -2510
 c499: u_a11 - u_a8 - 1197 y_a8_proc_1 >= -3765
 c500: u_a8 - u_a11 - 723 y_a11_proc_0 >= -1
 c501: u_a8 - u_a11 - 1111 y_a11_proc_3 >= -1
 c502: u_a8 - u_a11 - 953 y_a11_proc_1 >= -1256
 c503: u_a12 - u_a8 - 1114 y_a8_proc_3 >= -1
 c504: u_a12 - u_a8 - 1197 y_a8_proc_1 >= -2511
 c505: u_a8 - u_a12 - 700 y_a12_proc_3 >= 0
 c506: u_a8 - u_a12 - 984 y_a12_proc_1 >= -2510
 c507: u_a14 - u_a8 - 1114 y_a8_proc_3 >= -2510
 c508: u_a8 - u_a14 - 1195 y_a14_proc_3 >= -1
 c509: u_a10 - u_a9 - 1249 y_a9_proc_0 >= -2510
 c510: u_a10 - u_a9 - 403 y_a9_proc_2 >= -2510
 c511: u_a10 - u_a9 - 574 y_a9_proc_3 >= 0
 c512: u_a9 - u_a10 - 592 y_a10_proc_0 >= -2511
 c513: u_a9 - u_a10 - 1178 y_a10_proc_2 >= -2511
 c514: u_a9 - u_a10 - 832 y_a10_proc_3 >= -1
 c515: u_a11 - u_a9 - 1249 y_a9_proc_0 >= -2510
 c516: u_a11 - u_a9 - 403 y_a9_proc_2 >= -3765
 c517: u_a11 - u_a9 - 574 y_a9_proc_3 >= -2510
 c518: u_a9 - u_a11 - 723 y_a11_proc_0 >= -1
 c519: u_a9 - u_a11 - 635 y_a11_proc_2 >= -1256
 c520: u_a9 - u_a11 - 1111 y_a11_proc_3 >= -1
 c521: u_a12 - u_a9 - 574 y_a9_proc_3 >= 0
 c522: u_a9 - u_a12 - 700 y_a12_proc_3 >= -1
 c523: u_a13 - u_a9 - 403 y_a9_proc_2 >= 999997489
 c524: u_a9 - u_a13 - 847 y_a13_proc_2 >= -1000000000
 c525: u_a14 - u_a9 - 403 y_a9_proc_2 >= -2509
 c526: u_a14 - u_a9 - 574 y_a9_proc_3 >= -2509
 c527: u_a9 - u_a14 - 674 y_a14_proc_2 >= -2
 c528: u_a9 - u_a14 - 1195 y_a14_proc_3 >= -2
 c529: u_a11 - u_a10 - 592 y_a10_proc_0 >= -2510
 c530: u_a11 - u_a10 - 1178 y_a10_proc_2 >= -3765
 c531: u_a11 - u_a10 - 832 y_a10_proc_3 >= -2510
 c532: u_a11 - u_a10 - 1021 y_a10_proc_1 >= -3765
 c533: u_a10 - u_a11 - 723 y_a11_proc_0 >= -1
 c534: u_a10 - u_a11 - 635 y_a11_proc_2 >= -1256
 c535: u_a10 - u_a11 - 1111 y_a11_proc_3 >= -1
 c536: u_a10 - u_a11 - 953 y_a11_proc_1 >= -1256
 c537: u_a12 - u_a10 - 832 y_a10_proc_3 >= -1
 c538: u_a12 - u_a10 - 1021 y_a10_proc_1 >= -2511
 c539: u_a10 - u_a12 - 700 y_a12_proc_3 >= 0
 c540: u_a10 - u_a12 - 984 y_a12_proc_1 >= -2510
 c541: u_a13 - u_a10 - 1178 y_a10_proc_2 >= 999997489
 c542: u_a10 - u_a13 - 847 y_a13_proc_2 >= -1000000000
 c543: u_a14 - u_a10 - 1178 y_a10_proc_2 >= -2510
 c544: u_a14 - u_a10 - 832 y_a10_proc_3 >= -2510
 c545: u_a10 - u_a14 - 674 y_a14_proc_2 >= -1
 c546: u_a10 - u_a14 - 1195 y_a14_proc_3 >= -1
 c547: u_a12 - u_a11 - 1111 y_a11_proc_3 >= -2511
 c548: u_a12 - u_a11 - 953 y_a11_proc_1 >= -3766
 c549: u_a11 - u_a12 - 700 y_a12_proc_3 >= 0
 c550: u_a11 - u_a12 - 984 y_a12_proc_1 >= -1255
 c551: u_a13 - u_a11 - 635 y_a11_proc_2 >= 999997489
 c552: u_a11 - u_a13 - 847 y_a13_proc_2 >= -1000000000
 c553: u_a14 - u_a11 - 635 y_a11_proc_2 >= -2510
 c554: u_a14 - u_a11 - 1111 y_a11_proc_3 >= -3765
 c555: u_a11 - u_a14 - 674 y_a14_proc_2 >= -1
 c556: u_a11 - u_a14 - 1195 y_a14_proc_3 >= -1256
 c557: u_a14 - u_a12 - 700 y_a12_proc_3 >= -2510
 c558: u_a12 - u_a14 - 1195 y_a14_proc_3 >= -1
 c559: u_a14 - u_a13 - 847 y_a13_proc_2 >= -999999999
 c560: u_a13 - u_a14 - 674 y_a14_proc_2 >= 999999998

Bounds
End
